Generations:
0: ((48, 21, 3, 6, 7, 15, 26, 19, 22, 33, 1, 32, 35, 37, 9, 45, 49, 38, 20, 11, 12, 31, 30, 8, 10, 46, 27, 41, 25, 36, 28, 34, 42, 14, 39, 18, 24, 13, 47, 17, 23, 5, 43, 4, 2, 16, 29, 0, 40, 44), 1557)
1: ((48, 21, 3, 6, 7, 15, 26, 19, 22, 33, 1, 32, 35, 37, 9, 45, 49, 38, 20, 11, 12, 31, 30, 8, 10, 46, 27, 41, 25, 36, 28, 34, 42, 14, 39, 18, 24, 13, 47, 17, 23, 5, 43, 4, 2, 16, 29, 0, 40, 44), 1557)
2: ((48, 21, 3, 6, 7, 15, 26, 19, 22, 33, 1, 32, 35, 37, 9, 45, 49, 38, 20, 11, 12, 31, 30, 8, 10, 46, 27, 41, 25, 36, 28, 34, 42, 14, 39, 18, 24, 13, 47, 17, 23, 5, 43, 4, 2, 16, 29, 0, 40, 44), 1557)
3: ((48, 21, 3, 6, 7, 15, 26, 19, 22, 33, 1, 32, 35, 37, 9, 45, 49, 38, 20, 11, 12, 31, 30, 8, 10, 46, 27, 41, 25, 36, 28, 34, 42, 14, 39, 18, 24, 13, 47, 17, 23, 5, 43, 4, 2, 16, 29, 0, 40, 44), 1557)
4: ((48, 21, 3, 6, 7, 15, 26, 19, 22, 33, 1, 32, 35, 37, 9, 45, 49, 38, 20, 11, 12, 31, 30, 8, 10, 46, 27, 41, 25, 36, 28, 34, 42, 14, 39, 18, 24, 13, 47, 17, 23, 5, 43, 4, 2, 16, 29, 0, 40, 44), 1557)
5: ((48, 21, 3, 6, 7, 15, 26, 19, 22, 33, 1, 32, 35, 37, 9, 45, 49, 38, 20, 11, 12, 31, 30, 8, 10, 46, 27, 41, 25, 36, 28, 34, 42, 14, 39, 18, 24, 13, 47, 17, 23, 5, 43, 4, 2, 16, 29, 0, 40, 44), 1557)
6: ((48, 21, 3, 6, 7, 15, 26, 19, 22, 33, 1, 32, 35, 37, 9, 45, 49, 38, 20, 11, 12, 31, 30, 8, 10, 46, 27, 41, 25, 36, 28, 34, 42, 14, 39, 18, 24, 13, 47, 17, 23, 5, 43, 4, 2, 16, 29, 0, 40, 44), 1557)
7: ((48, 21, 3, 6, 7, 15, 26, 19, 22, 33, 1, 32, 35, 37, 9, 45, 49, 38, 20, 11, 12, 31, 30, 8, 10, 46, 27, 41, 25, 36, 28, 34, 42, 14, 39, 18, 24, 13, 47, 17, 23, 5, 43, 4, 2, 16, 29, 0, 40, 44), 1557)
8: ((48, 21, 3, 6, 7, 15, 26, 19, 22, 33, 1, 32, 35, 37, 9, 45, 49, 38, 20, 11, 12, 31, 30, 8, 10, 46, 27, 41, 25, 36, 28, 34, 42, 14, 39, 18, 24, 13, 47, 17, 23, 5, 43, 4, 2, 16, 29, 0, 40, 44), 1557)
9: ((48, 21, 3, 6, 7, 15, 26, 19, 22, 33, 1, 32, 35, 37, 9, 45, 49, 38, 20, 11, 12, 31, 30, 8, 10, 46, 27, 41, 25, 36, 28, 34, 42, 14, 39, 18, 24, 13, 47, 17, 23, 5, 43, 4, 2, 16, 29, 0, 40, 44), 1557)
10: ((1, 33, 5, 20, 28, 4, 31, 41, 2, 7, 16, 25, 30, 3, 35, 48, 21, 11, 13, 32, 34, 49, 46, 42, 14, 22, 37, 0, 10, 38, 24, 43, 19, 40, 8, 36, 18, 17, 45, 29, 9, 27, 26, 12, 15, 39, 47, 6, 23, 44), 1556)
11: ((1, 33, 5, 20, 28, 4, 31, 41, 2, 7, 16, 25, 30, 3, 35, 48, 21, 11, 13, 32, 34, 49, 46, 42, 14, 22, 37, 0, 10, 38, 24, 43, 19, 40, 8, 36, 18, 17, 45, 29, 9, 27, 26, 12, 15, 39, 47, 6, 23, 44), 1556)
12: ((1, 33, 5, 20, 28, 4, 31, 41, 2, 7, 16, 25, 30, 3, 35, 48, 21, 11, 13, 32, 34, 49, 46, 42, 14, 22, 37, 0, 10, 38, 24, 43, 19, 40, 8, 36, 18, 17, 45, 29, 9, 27, 26, 12, 15, 39, 47, 6, 23, 44), 1556)
13: ((1, 33, 5, 20, 28, 4, 31, 41, 2, 7, 16, 25, 30, 3, 35, 48, 21, 11, 13, 32, 34, 49, 46, 42, 14, 22, 37, 0, 10, 38, 24, 43, 19, 40, 8, 36, 18, 17, 45, 29, 9, 27, 26, 12, 15, 39, 47, 6, 23, 44), 1556)
14: ((1, 33, 5, 20, 28, 4, 31, 41, 2, 7, 16, 25, 30, 3, 35, 48, 21, 11, 13, 32, 34, 49, 46, 42, 14, 22, 37, 0, 10, 38, 24, 43, 19, 40, 8, 36, 18, 17, 45, 29, 9, 27, 26, 12, 15, 39, 47, 6, 23, 44), 1556)
15: ((1, 33, 5, 20, 28, 4, 31, 41, 2, 7, 16, 25, 30, 3, 35, 48, 21, 11, 13, 32, 34, 49, 46, 42, 14, 22, 37, 0, 10, 38, 24, 43, 19, 40, 8, 36, 18, 17, 45, 29, 9, 27, 26, 12, 15, 39, 47, 6, 23, 44), 1556)
16: ((1, 33, 5, 20, 28, 4, 31, 41, 2, 7, 16, 25, 30, 3, 35, 48, 21, 11, 13, 32, 34, 49, 46, 42, 14, 22, 37, 0, 10, 38, 24, 43, 19, 40, 8, 36, 18, 17, 45, 29, 9, 27, 26, 12, 15, 39, 47, 6, 23, 44), 1556)
17: ((1, 33, 5, 20, 28, 4, 31, 41, 2, 7, 16, 25, 30, 3, 35, 48, 21, 11, 13, 32, 34, 49, 46, 42, 14, 22, 37, 0, 10, 38, 24, 43, 19, 40, 8, 36, 18, 17, 45, 29, 9, 27, 26, 12, 15, 39, 47, 6, 23, 44), 1556)
18: ((1, 33, 5, 20, 28, 4, 31, 41, 2, 7, 16, 25, 30, 3, 35, 48, 21, 11, 13, 32, 34, 49, 46, 42, 14, 22, 37, 0, 10, 38, 24, 43, 19, 40, 8, 36, 18, 17, 45, 29, 9, 27, 26, 12, 15, 39, 47, 6, 23, 44), 1556)
19: ((1, 33, 5, 20, 28, 4, 31, 41, 2, 7, 16, 25, 30, 3, 35, 48, 21, 11, 13, 32, 34, 49, 46, 42, 14, 22, 37, 0, 10, 38, 24, 43, 19, 40, 8, 36, 18, 17, 45, 29, 9, 27, 26, 12, 15, 39, 47, 6, 23, 44), 1556)
20: ((1, 33, 5, 20, 28, 4, 31, 41, 2, 7, 16, 25, 30, 3, 35, 48, 21, 11, 13, 32, 34, 49, 46, 42, 14, 22, 37, 0, 10, 38, 24, 43, 19, 40, 8, 36, 18, 17, 45, 29, 9, 27, 26, 12, 15, 39, 47, 6, 23, 44), 1556)
21: ((1, 33, 5, 20, 28, 4, 31, 41, 2, 7, 16, 25, 30, 3, 35, 48, 21, 11, 13, 32, 34, 49, 46, 42, 14, 22, 37, 0, 10, 38, 24, 43, 19, 40, 8, 36, 18, 17, 45, 29, 9, 27, 26, 12, 15, 39, 47, 6, 23, 44), 1556)
22: ((1, 33, 5, 20, 28, 4, 31, 41, 2, 7, 16, 25, 30, 3, 35, 48, 21, 11, 13, 32, 34, 49, 46, 42, 14, 22, 37, 0, 10, 38, 24, 43, 19, 40, 8, 36, 18, 17, 45, 29, 9, 27, 26, 12, 15, 39, 47, 6, 23, 44), 1556)
23: ((1, 33, 5, 20, 28, 4, 31, 41, 2, 7, 16, 25, 30, 3, 35, 48, 21, 11, 13, 32, 34, 49, 46, 42, 14, 22, 37, 0, 10, 38, 24, 43, 19, 40, 8, 36, 18, 17, 45, 29, 9, 27, 26, 12, 15, 39, 47, 6, 23, 44), 1556)
24: ((1, 33, 5, 20, 28, 4, 31, 41, 2, 7, 16, 25, 30, 3, 35, 48, 21, 11, 13, 32, 34, 49, 46, 42, 14, 22, 37, 0, 10, 38, 24, 43, 19, 40, 8, 36, 18, 17, 45, 29, 9, 27, 26, 12, 15, 39, 47, 6, 23, 44), 1556)
25: ((1, 33, 5, 20, 28, 4, 31, 41, 2, 7, 16, 25, 30, 3, 35, 48, 21, 11, 13, 32, 34, 49, 46, 42, 14, 22, 37, 0, 10, 38, 24, 43, 19, 40, 8, 36, 18, 17, 45, 29, 9, 27, 26, 12, 15, 39, 47, 6, 23, 44), 1556)
26: ((1, 33, 5, 20, 28, 4, 31, 41, 2, 7, 16, 25, 30, 3, 35, 48, 21, 11, 13, 32, 34, 49, 46, 42, 14, 22, 37, 0, 10, 38, 24, 43, 19, 40, 8, 36, 18, 17, 45, 29, 9, 27, 26, 12, 15, 39, 47, 6, 23, 44), 1556)
27: ((1, 33, 5, 20, 28, 4, 31, 41, 2, 7, 16, 25, 30, 3, 35, 48, 21, 11, 13, 32, 34, 49, 46, 42, 14, 22, 37, 0, 10, 38, 24, 43, 19, 40, 8, 36, 18, 17, 45, 29, 9, 27, 26, 12, 15, 39, 47, 6, 23, 44), 1556)
28: ((1, 33, 5, 20, 28, 4, 31, 41, 2, 7, 16, 25, 30, 3, 35, 48, 21, 11, 13, 32, 34, 49, 46, 42, 14, 22, 37, 0, 10, 38, 24, 43, 19, 40, 8, 36, 18, 17, 45, 29, 9, 27, 26, 12, 15, 39, 47, 6, 23, 44), 1556)
29: ((1, 33, 5, 20, 28, 4, 31, 41, 2, 7, 16, 25, 30, 3, 35, 48, 21, 11, 13, 32, 34, 49, 46, 42, 14, 22, 37, 0, 10, 38, 24, 43, 19, 40, 8, 36, 18, 17, 45, 29, 9, 27, 26, 12, 15, 39, 47, 6, 23, 44), 1556)
30: ((1, 33, 5, 20, 28, 4, 31, 41, 2, 7, 16, 25, 30, 3, 35, 48, 21, 11, 13, 32, 34, 49, 46, 42, 14, 22, 37, 0, 10, 38, 24, 43, 19, 40, 8, 36, 18, 17, 45, 29, 9, 27, 26, 12, 15, 39, 47, 6, 23, 44), 1556)
31: ((1, 33, 5, 20, 28, 4, 31, 41, 2, 7, 16, 25, 30, 3, 35, 48, 21, 11, 13, 32, 34, 49, 46, 42, 14, 22, 37, 0, 10, 38, 24, 43, 19, 40, 8, 36, 18, 17, 45, 29, 9, 27, 26, 12, 15, 39, 47, 6, 23, 44), 1556)
32: ((1, 33, 5, 20, 28, 4, 31, 41, 2, 7, 16, 25, 30, 3, 35, 48, 21, 11, 13, 32, 34, 49, 46, 42, 14, 22, 37, 0, 10, 38, 24, 43, 19, 40, 8, 36, 18, 17, 45, 29, 9, 27, 26, 12, 15, 39, 47, 6, 23, 44), 1556)
33: ((1, 33, 5, 20, 28, 4, 31, 41, 2, 7, 16, 25, 30, 3, 35, 48, 21, 11, 13, 32, 34, 49, 46, 42, 14, 22, 37, 0, 10, 38, 24, 43, 19, 40, 8, 36, 18, 17, 45, 29, 9, 27, 26, 12, 15, 39, 47, 6, 23, 44), 1556)
34: ((1, 33, 5, 20, 28, 4, 31, 41, 2, 7, 16, 25, 30, 3, 35, 48, 21, 11, 13, 32, 34, 49, 46, 42, 14, 22, 37, 0, 10, 38, 24, 43, 19, 40, 8, 36, 18, 17, 45, 29, 9, 27, 26, 12, 15, 39, 47, 6, 23, 44), 1556)
35: ((1, 33, 5, 20, 28, 4, 31, 41, 2, 7, 16, 25, 30, 3, 35, 48, 21, 11, 13, 32, 34, 49, 46, 42, 14, 22, 37, 0, 10, 38, 24, 43, 19, 40, 8, 36, 18, 17, 45, 29, 9, 27, 26, 12, 15, 39, 47, 6, 23, 44), 1556)
36: ((1, 33, 5, 20, 28, 4, 31, 41, 2, 7, 16, 25, 30, 3, 35, 48, 21, 11, 13, 32, 34, 49, 46, 42, 14, 22, 37, 0, 10, 38, 24, 43, 19, 40, 8, 36, 18, 17, 45, 29, 9, 27, 26, 12, 15, 39, 47, 6, 23, 44), 1556)
37: ((1, 33, 5, 20, 28, 4, 31, 41, 2, 7, 16, 25, 30, 3, 35, 48, 21, 11, 13, 32, 34, 49, 46, 42, 14, 22, 37, 0, 10, 38, 24, 43, 19, 40, 8, 36, 18, 17, 45, 29, 9, 27, 26, 12, 15, 39, 47, 6, 23, 44), 1556)
38: ((1, 33, 5, 20, 28, 4, 31, 41, 2, 7, 16, 25, 30, 3, 35, 48, 21, 11, 13, 32, 34, 49, 46, 42, 14, 22, 37, 0, 10, 38, 24, 43, 19, 40, 8, 36, 18, 17, 45, 29, 9, 27, 26, 12, 15, 39, 47, 6, 23, 44), 1556)
39: ((1, 33, 5, 20, 28, 4, 31, 41, 2, 7, 16, 25, 30, 3, 35, 48, 21, 11, 13, 32, 34, 49, 46, 42, 14, 22, 37, 0, 10, 38, 24, 43, 19, 40, 8, 36, 18, 17, 45, 29, 9, 27, 26, 12, 15, 39, 47, 6, 23, 44), 1556)
40: ((1, 33, 5, 20, 28, 4, 31, 41, 2, 7, 16, 25, 30, 3, 35, 48, 21, 11, 13, 32, 34, 49, 46, 42, 14, 22, 37, 0, 10, 38, 24, 43, 19, 40, 8, 36, 18, 17, 45, 29, 9, 27, 26, 12, 15, 39, 47, 6, 23, 44), 1556)
41: ((1, 33, 5, 20, 28, 4, 31, 41, 2, 7, 16, 25, 30, 3, 35, 48, 21, 11, 13, 32, 34, 49, 46, 42, 14, 22, 37, 0, 10, 38, 24, 43, 19, 40, 8, 36, 18, 17, 45, 29, 9, 27, 26, 12, 15, 39, 47, 6, 23, 44), 1556)
42: ((1, 33, 5, 20, 28, 4, 31, 41, 2, 7, 16, 25, 30, 3, 35, 48, 21, 11, 13, 32, 34, 49, 46, 42, 14, 22, 37, 0, 10, 38, 24, 43, 19, 40, 8, 36, 18, 17, 45, 29, 9, 27, 26, 12, 15, 39, 47, 6, 23, 44), 1556)
43: ((1, 33, 5, 20, 28, 4, 31, 41, 2, 7, 16, 25, 30, 3, 35, 48, 21, 11, 13, 32, 34, 49, 46, 42, 14, 22, 37, 0, 10, 38, 24, 43, 19, 40, 8, 36, 18, 17, 45, 29, 9, 27, 26, 12, 15, 39, 47, 6, 23, 44), 1556)
44: ((1, 33, 5, 20, 28, 4, 31, 41, 2, 7, 16, 25, 30, 3, 35, 48, 21, 11, 13, 32, 34, 49, 46, 42, 14, 22, 37, 0, 10, 38, 24, 43, 19, 40, 8, 36, 18, 17, 45, 29, 9, 27, 26, 12, 15, 39, 47, 6, 23, 44), 1556)
45: ((1, 33, 5, 20, 28, 4, 31, 41, 2, 7, 16, 25, 30, 3, 35, 48, 21, 11, 13, 32, 34, 49, 46, 42, 14, 22, 37, 0, 10, 38, 24, 43, 19, 40, 8, 36, 18, 17, 45, 29, 9, 27, 26, 12, 15, 39, 47, 6, 23, 44), 1556)
46: ((1, 33, 5, 20, 28, 4, 31, 41, 2, 7, 16, 25, 30, 3, 35, 48, 21, 11, 13, 32, 34, 49, 46, 42, 14, 22, 37, 0, 10, 38, 24, 43, 19, 40, 8, 36, 18, 17, 45, 29, 9, 27, 26, 12, 15, 39, 47, 6, 23, 44), 1556)
47: ((1, 33, 5, 20, 28, 4, 31, 41, 2, 7, 16, 25, 30, 3, 35, 48, 21, 11, 13, 32, 34, 49, 46, 42, 14, 22, 37, 0, 10, 38, 24, 43, 19, 40, 8, 36, 18, 17, 45, 29, 9, 27, 26, 12, 15, 39, 47, 6, 23, 44), 1556)
48: ((1, 33, 5, 20, 28, 4, 31, 41, 2, 7, 16, 25, 30, 3, 35, 48, 21, 11, 13, 32, 34, 49, 46, 42, 14, 22, 37, 0, 10, 38, 24, 43, 19, 40, 8, 36, 18, 17, 45, 29, 9, 27, 26, 12, 15, 39, 47, 6, 23, 44), 1556)
49: ((1, 33, 5, 20, 28, 4, 31, 41, 2, 7, 16, 25, 30, 3, 35, 48, 21, 11, 13, 32, 34, 49, 46, 42, 14, 22, 37, 0, 10, 38, 24, 43, 19, 40, 8, 36, 18, 17, 45, 29, 9, 27, 26, 12, 15, 39, 47, 6, 23, 44), 1556)
50: ((1, 33, 5, 20, 28, 4, 31, 41, 2, 7, 16, 25, 30, 3, 35, 48, 21, 11, 13, 32, 34, 49, 46, 42, 14, 22, 37, 0, 10, 38, 24, 43, 19, 40, 8, 36, 18, 17, 45, 29, 9, 27, 26, 12, 15, 39, 47, 6, 23, 44), 1556)
51: ((1, 33, 5, 20, 28, 4, 31, 41, 2, 7, 16, 25, 30, 3, 35, 48, 21, 11, 13, 32, 34, 49, 46, 42, 14, 22, 37, 0, 10, 38, 24, 43, 19, 40, 8, 36, 18, 17, 45, 29, 9, 27, 26, 12, 15, 39, 47, 6, 23, 44), 1556)
52: ((1, 33, 5, 20, 28, 4, 31, 41, 2, 7, 16, 25, 30, 3, 35, 48, 21, 11, 13, 32, 34, 49, 46, 42, 14, 22, 37, 0, 10, 38, 24, 43, 19, 40, 8, 36, 18, 17, 45, 29, 9, 27, 26, 12, 15, 39, 47, 6, 23, 44), 1556)
53: ((1, 33, 5, 20, 28, 4, 31, 41, 2, 7, 16, 25, 30, 3, 35, 48, 21, 11, 13, 32, 34, 49, 46, 42, 14, 22, 37, 0, 10, 38, 24, 43, 19, 40, 8, 36, 18, 17, 45, 29, 9, 27, 26, 12, 15, 39, 47, 6, 23, 44), 1556)
54: ((1, 33, 5, 20, 28, 4, 31, 41, 2, 7, 16, 25, 30, 3, 35, 48, 21, 11, 13, 32, 34, 49, 46, 42, 14, 22, 37, 0, 10, 38, 24, 43, 19, 40, 8, 36, 18, 17, 45, 29, 9, 27, 26, 12, 15, 39, 47, 6, 23, 44), 1556)
55: ((1, 33, 5, 20, 28, 4, 31, 41, 2, 7, 16, 25, 30, 3, 35, 48, 21, 11, 13, 32, 34, 49, 46, 42, 14, 22, 37, 0, 10, 38, 24, 43, 19, 40, 8, 36, 18, 17, 45, 29, 9, 27, 26, 12, 15, 39, 47, 6, 23, 44), 1556)
56: ((1, 33, 5, 20, 28, 4, 31, 41, 2, 7, 16, 25, 30, 3, 35, 48, 21, 11, 13, 32, 34, 49, 46, 42, 14, 22, 37, 0, 10, 38, 24, 43, 19, 40, 8, 36, 18, 17, 45, 29, 9, 27, 26, 12, 15, 39, 47, 6, 23, 44), 1556)
57: ((1, 33, 5, 20, 28, 4, 31, 41, 2, 7, 16, 25, 30, 3, 35, 48, 21, 11, 13, 32, 34, 49, 46, 42, 14, 22, 37, 0, 10, 38, 24, 43, 19, 40, 8, 36, 18, 17, 45, 29, 9, 27, 26, 12, 15, 39, 47, 6, 23, 44), 1556)
58: ((1, 33, 5, 20, 28, 4, 31, 41, 2, 7, 16, 25, 30, 3, 35, 48, 21, 11, 13, 32, 34, 49, 46, 42, 14, 22, 37, 0, 10, 38, 24, 43, 19, 40, 8, 36, 18, 17, 45, 29, 9, 27, 26, 12, 15, 39, 47, 6, 23, 44), 1556)
59: ((1, 33, 5, 20, 28, 4, 31, 41, 2, 7, 16, 25, 30, 3, 35, 48, 21, 11, 13, 32, 34, 49, 46, 42, 14, 22, 37, 0, 10, 38, 24, 43, 19, 40, 8, 36, 18, 17, 45, 29, 9, 27, 26, 12, 15, 39, 47, 6, 23, 44), 1556)
60: ((1, 33, 5, 20, 28, 4, 31, 41, 2, 7, 16, 25, 30, 3, 35, 48, 21, 11, 13, 32, 34, 49, 46, 42, 14, 22, 37, 0, 10, 38, 24, 43, 19, 40, 8, 36, 18, 17, 45, 29, 9, 27, 26, 12, 15, 39, 47, 6, 23, 44), 1556)
61: ((1, 33, 5, 20, 28, 4, 31, 41, 2, 7, 16, 25, 30, 3, 35, 48, 21, 11, 13, 32, 34, 49, 46, 42, 14, 22, 37, 0, 10, 38, 24, 43, 19, 40, 8, 36, 18, 17, 45, 29, 9, 27, 26, 12, 15, 39, 47, 6, 23, 44), 1556)
62: ((1, 33, 5, 20, 28, 4, 31, 41, 2, 7, 16, 25, 30, 3, 35, 48, 21, 11, 13, 32, 34, 49, 46, 42, 14, 22, 37, 0, 10, 38, 24, 43, 19, 40, 8, 36, 18, 17, 45, 29, 9, 27, 26, 12, 15, 39, 47, 6, 23, 44), 1556)
63: ((1, 33, 5, 20, 28, 4, 31, 41, 2, 7, 16, 25, 30, 3, 35, 48, 21, 11, 13, 32, 34, 49, 46, 42, 14, 22, 37, 0, 10, 38, 24, 43, 19, 40, 8, 36, 18, 17, 45, 29, 9, 27, 26, 12, 15, 39, 47, 6, 23, 44), 1556)
64: ((1, 33, 5, 20, 28, 4, 31, 41, 2, 7, 16, 25, 30, 3, 35, 48, 21, 11, 13, 32, 34, 49, 46, 42, 14, 22, 37, 0, 10, 38, 24, 43, 19, 40, 8, 36, 18, 17, 45, 29, 9, 27, 26, 12, 15, 39, 47, 6, 23, 44), 1556)
65: ((1, 33, 5, 20, 28, 4, 31, 41, 2, 7, 16, 25, 30, 3, 35, 48, 21, 11, 13, 32, 34, 49, 46, 42, 14, 22, 37, 0, 10, 38, 24, 43, 19, 40, 8, 36, 18, 17, 45, 29, 9, 27, 26, 12, 15, 39, 47, 6, 23, 44), 1556)
66: ((1, 33, 5, 20, 28, 4, 31, 41, 2, 7, 16, 25, 30, 3, 35, 48, 21, 11, 13, 32, 34, 49, 46, 42, 14, 22, 37, 0, 10, 38, 24, 43, 19, 40, 8, 36, 18, 17, 45, 29, 9, 27, 26, 12, 15, 39, 47, 6, 23, 44), 1556)
67: ((1, 33, 5, 20, 28, 4, 31, 41, 2, 7, 16, 25, 30, 3, 35, 48, 21, 11, 13, 32, 34, 49, 46, 42, 14, 22, 37, 0, 10, 38, 24, 43, 19, 40, 8, 36, 18, 17, 45, 29, 9, 27, 26, 12, 15, 39, 47, 6, 23, 44), 1556)
68: ((1, 33, 5, 20, 28, 4, 31, 41, 2, 7, 16, 25, 30, 3, 35, 48, 21, 11, 13, 32, 34, 49, 46, 42, 14, 22, 37, 0, 10, 38, 24, 43, 19, 40, 8, 36, 18, 17, 45, 29, 9, 27, 26, 12, 15, 39, 47, 6, 23, 44), 1556)
69: ((1, 33, 5, 20, 28, 4, 31, 41, 2, 7, 16, 25, 30, 3, 35, 48, 21, 11, 13, 32, 34, 49, 46, 42, 14, 22, 37, 0, 10, 38, 24, 43, 19, 40, 8, 36, 18, 17, 45, 29, 9, 27, 26, 12, 15, 39, 47, 6, 23, 44), 1556)
70: ((1, 33, 5, 20, 28, 4, 31, 41, 2, 7, 16, 25, 30, 3, 35, 48, 21, 11, 13, 32, 34, 49, 46, 42, 14, 22, 37, 0, 10, 38, 24, 43, 19, 40, 8, 36, 18, 17, 45, 29, 9, 27, 26, 12, 15, 39, 47, 6, 23, 44), 1556)
71: ((1, 33, 5, 20, 28, 4, 31, 41, 2, 7, 16, 25, 30, 3, 35, 48, 21, 11, 13, 32, 34, 49, 46, 42, 14, 22, 37, 0, 10, 38, 24, 43, 19, 40, 8, 36, 18, 17, 45, 29, 9, 27, 26, 12, 15, 39, 47, 6, 23, 44), 1556)
72: ((1, 33, 5, 20, 28, 4, 31, 41, 2, 7, 16, 25, 30, 3, 35, 48, 21, 11, 13, 32, 34, 49, 46, 42, 14, 22, 37, 0, 10, 38, 24, 43, 19, 40, 8, 36, 18, 17, 45, 29, 9, 27, 26, 12, 15, 39, 47, 6, 23, 44), 1556)
73: ((1, 33, 5, 20, 28, 4, 31, 41, 2, 7, 16, 25, 30, 3, 35, 48, 21, 11, 13, 32, 34, 49, 46, 42, 14, 22, 37, 0, 10, 38, 24, 43, 19, 40, 8, 36, 18, 17, 45, 29, 9, 27, 26, 12, 15, 39, 47, 6, 23, 44), 1556)
74: ((1, 33, 5, 20, 28, 4, 31, 41, 2, 7, 16, 25, 30, 3, 35, 48, 21, 11, 13, 32, 34, 49, 46, 42, 14, 22, 37, 0, 10, 38, 24, 43, 19, 40, 8, 36, 18, 17, 45, 29, 9, 27, 26, 12, 15, 39, 47, 6, 23, 44), 1556)
75: ((1, 33, 5, 20, 28, 4, 31, 41, 2, 7, 16, 25, 30, 3, 35, 48, 21, 11, 13, 32, 34, 49, 46, 42, 14, 22, 37, 0, 10, 38, 24, 43, 19, 40, 8, 36, 18, 17, 45, 29, 9, 27, 26, 12, 15, 39, 47, 6, 23, 44), 1556)
76: ((1, 33, 5, 20, 28, 4, 31, 41, 2, 7, 16, 25, 30, 3, 35, 48, 21, 11, 13, 32, 34, 49, 46, 42, 14, 22, 37, 0, 10, 38, 24, 43, 19, 40, 8, 36, 18, 17, 45, 29, 9, 27, 26, 12, 15, 39, 47, 6, 23, 44), 1556)
77: ((1, 33, 5, 20, 28, 4, 31, 41, 2, 7, 16, 25, 30, 3, 35, 48, 21, 11, 13, 32, 34, 49, 46, 42, 14, 22, 37, 0, 10, 38, 24, 43, 19, 40, 8, 36, 18, 17, 45, 29, 9, 27, 26, 12, 15, 39, 47, 6, 23, 44), 1556)
78: ((1, 33, 5, 20, 28, 4, 31, 41, 2, 7, 16, 25, 30, 3, 35, 48, 21, 11, 13, 32, 34, 49, 46, 42, 14, 22, 37, 0, 10, 38, 24, 43, 19, 40, 8, 36, 18, 17, 45, 29, 9, 27, 26, 12, 15, 39, 47, 6, 23, 44), 1556)
79: ((1, 33, 5, 20, 28, 4, 31, 41, 2, 7, 16, 25, 30, 3, 35, 48, 21, 11, 13, 32, 34, 49, 46, 42, 14, 22, 37, 0, 10, 38, 24, 43, 19, 40, 8, 36, 18, 17, 45, 29, 9, 27, 26, 12, 15, 39, 47, 6, 23, 44), 1556)
80: ((1, 33, 5, 20, 28, 4, 31, 41, 2, 7, 16, 25, 30, 3, 35, 48, 21, 11, 13, 32, 34, 49, 46, 42, 14, 22, 37, 0, 10, 38, 24, 43, 19, 40, 8, 36, 18, 17, 45, 29, 9, 27, 26, 12, 15, 39, 47, 6, 23, 44), 1556)
81: ((1, 33, 5, 20, 28, 4, 31, 41, 2, 7, 16, 25, 30, 3, 35, 48, 21, 11, 13, 32, 34, 49, 46, 42, 14, 22, 37, 0, 10, 38, 24, 43, 19, 40, 8, 36, 18, 17, 45, 29, 9, 27, 26, 12, 15, 39, 47, 6, 23, 44), 1556)
82: ((1, 33, 5, 20, 28, 4, 31, 41, 2, 7, 16, 25, 30, 3, 35, 48, 21, 11, 13, 32, 34, 49, 46, 42, 14, 22, 37, 0, 10, 38, 24, 43, 19, 40, 8, 36, 18, 17, 45, 29, 9, 27, 26, 12, 15, 39, 47, 6, 23, 44), 1556)
83: ((1, 33, 5, 20, 28, 4, 31, 41, 2, 7, 16, 25, 30, 3, 35, 48, 21, 11, 13, 32, 34, 49, 46, 42, 14, 22, 37, 0, 10, 38, 24, 43, 19, 40, 8, 36, 18, 17, 45, 29, 9, 27, 26, 12, 15, 39, 47, 6, 23, 44), 1556)
84: ((1, 33, 5, 20, 28, 4, 31, 41, 2, 7, 16, 25, 30, 3, 35, 48, 21, 11, 13, 32, 34, 49, 46, 42, 14, 22, 37, 0, 10, 38, 24, 43, 19, 40, 8, 36, 18, 17, 45, 29, 9, 27, 26, 12, 15, 39, 47, 6, 23, 44), 1556)
85: ((1, 33, 5, 20, 28, 4, 31, 41, 2, 7, 16, 25, 30, 3, 35, 48, 21, 11, 13, 32, 34, 49, 46, 42, 14, 22, 37, 0, 10, 38, 24, 43, 19, 40, 8, 36, 18, 17, 45, 29, 9, 27, 26, 12, 15, 39, 47, 6, 23, 44), 1556)
86: ((1, 33, 5, 20, 28, 4, 31, 41, 2, 7, 16, 25, 30, 3, 35, 48, 21, 11, 13, 32, 34, 49, 46, 42, 14, 22, 37, 0, 10, 38, 24, 43, 19, 40, 8, 36, 18, 17, 45, 29, 9, 27, 26, 12, 15, 39, 47, 6, 23, 44), 1556)
87: ((1, 33, 5, 20, 28, 4, 31, 41, 2, 7, 16, 25, 30, 3, 35, 48, 21, 11, 13, 32, 34, 49, 46, 42, 14, 22, 37, 0, 10, 38, 24, 43, 19, 40, 8, 36, 18, 17, 45, 29, 9, 27, 26, 12, 15, 39, 47, 6, 23, 44), 1556)
88: ((1, 33, 5, 20, 28, 4, 31, 41, 2, 7, 16, 25, 30, 3, 35, 48, 21, 11, 13, 32, 34, 49, 46, 42, 14, 22, 37, 0, 10, 38, 24, 43, 19, 40, 8, 36, 18, 17, 45, 29, 9, 27, 26, 12, 15, 39, 47, 6, 23, 44), 1556)
89: ((1, 33, 5, 20, 28, 4, 31, 41, 2, 7, 16, 25, 30, 3, 35, 48, 21, 11, 13, 32, 34, 49, 46, 42, 14, 22, 37, 0, 10, 38, 24, 43, 19, 40, 8, 36, 18, 17, 45, 29, 9, 27, 26, 12, 15, 39, 47, 6, 23, 44), 1556)
90: ((1, 33, 5, 20, 28, 4, 31, 41, 2, 7, 16, 25, 30, 3, 35, 48, 21, 11, 13, 32, 34, 49, 46, 42, 14, 22, 37, 0, 10, 38, 24, 43, 19, 40, 8, 36, 18, 17, 45, 29, 9, 27, 26, 12, 15, 39, 47, 6, 23, 44), 1556)
91: ((1, 33, 5, 20, 28, 4, 31, 41, 2, 7, 16, 25, 30, 3, 35, 48, 21, 11, 13, 32, 34, 49, 46, 42, 14, 22, 37, 0, 10, 38, 24, 43, 19, 40, 8, 36, 18, 17, 45, 29, 9, 27, 26, 12, 15, 39, 47, 6, 23, 44), 1556)
92: ((1, 33, 5, 20, 28, 4, 31, 41, 2, 7, 16, 25, 30, 3, 35, 48, 21, 11, 13, 32, 34, 49, 46, 42, 14, 22, 37, 0, 10, 38, 24, 43, 19, 40, 8, 36, 18, 17, 45, 29, 9, 27, 26, 12, 15, 39, 47, 6, 23, 44), 1556)
93: ((1, 33, 5, 20, 28, 4, 31, 41, 2, 7, 16, 25, 30, 3, 35, 48, 21, 11, 13, 32, 34, 49, 46, 42, 14, 22, 37, 0, 10, 38, 24, 43, 19, 40, 8, 36, 18, 17, 45, 29, 9, 27, 26, 12, 15, 39, 47, 6, 23, 44), 1556)
94: ((1, 33, 5, 20, 28, 4, 31, 41, 2, 7, 16, 25, 30, 3, 35, 48, 21, 11, 13, 32, 34, 49, 46, 42, 14, 22, 37, 0, 10, 38, 24, 43, 19, 40, 8, 36, 18, 17, 45, 29, 9, 27, 26, 12, 15, 39, 47, 6, 23, 44), 1556)
95: ((1, 33, 5, 20, 28, 4, 31, 41, 2, 7, 16, 25, 30, 3, 35, 48, 21, 11, 13, 32, 34, 49, 46, 42, 14, 22, 37, 0, 10, 38, 24, 43, 19, 40, 8, 36, 18, 17, 45, 29, 9, 27, 26, 12, 15, 39, 47, 6, 23, 44), 1556)
Best: ((1, 33, 5, 20, 28, 4, 31, 41, 2, 7, 16, 25, 30, 3, 35, 48, 21, 11, 13, 32, 34, 49, 46, 42, 14, 22, 37, 0, 10, 38, 24, 43, 19, 40, 8, 36, 18, 17, 45, 29, 9, 27, 26, 12, 15, 39, 47, 6, 23, 44), 1556)
Runtime: 28.6267347 s